p tdp 104 103
62 38
8 25
46 68
90 85
2 104
61 86
77 14
12 103
71 59
13 71
63 35
62 18
45 37
64 69
5 67
49 52
90 66
37 97
26 39
85 75
1 78
81 52
95 87
101 70
11 80
14 55
67 65
36 47
31 42
74 44
99 20
94 27
73 58
14 79
68 23
53 16
4 30
21 34
96 29
28 43
101 99
48 39
50 54
73 24
102 32
26 91
42 17
38 95
78 82
34 42
15 19
80 9
56 30
6 7
8 92
11 1
60 12
36 49
88 59
41 102
57 2
39 64
45 104
21 19
42 65
3 93
71 89
61 74
32 84
54 22
27 66
7 98
46 10
28 3
43 50
11 55
12 68
72 51
63 14
15 68
14 3
72 104
14 75
81 45
100 71
40 16
16 38
52 83
76 33
79 58
7 25
13 99
92 10
29 56
103 57
53 48
96 55
6 91
70 37
32 86
25 75
33 32
44 82
